Gurobi Optimizer version 9.1.2 build v9.1.2rc0 (linux64)
Thread count: 36 physical cores, 72 logical processors, using up to 32 threads
Optimize a model with 12 rows, 57 columns and 590 nonzeros
Model fingerprint: 0xf32eec78
Model has 47 quadratic constraints
Coefficient statistics:
  Matrix range     [2e-05, 3e+00]
  QMatrix range    [1e+00, 1e+00]
  QLMatrix range   [1e+00, 1e+00]
  Objective range  [8e-03, 7e-01]
  Bounds range     [1e+00, 1e+00]
  RHS range        [1e+00, 1e+00]
Presolve removed 9 rows and 0 columns

Continuous model is non-convex -- solving as a MIP.

Presolve removed 9 rows and 0 columns
Presolve time: 0.00s
Presolved: 189 rows, 57 columns, 443 nonzeros
Presolved model has 47 bilinear constraint(s)
Variable types: 57 continuous, 0 integer (0 binary)

Root relaxation: objective -1.743721e+00, 44 iterations, 0.00 seconds

    Nodes    |    Current Node    |     Objective Bounds      |     Work
 Expl Unexpl |  Obj  Depth IntInf | Incumbent    BestBd   Gap | It/Node Time

     0     0   -1.74372    0   38          -   -1.74372      -     -    0s
H    0     0                       0.6147548   -1.74372   384%     -    0s
     0     0   -1.64739    0    1    0.61475   -1.64739   368%     -    0s
H    0     0                      -1.6450460   -1.64739  0.14%     -    0s
     0     0     cutoff    0        -1.64505   -1.64505  0.00%     -    0s

Cutting planes:
  RLT: 25
  BQP: 3

Explored 1 nodes (76 simplex iterations) in 0.01 seconds
Thread count was 32 (of 72 available processors)

Solution count 2: -1.64505 0.614755 
No other solutions better than -1.64505

Optimal solution found (tolerance 1.00e-04)
Best objective -1.645045978473e+00, best bound -1.645045978473e+00, gap 0.0000%

User-callback calls 78, time in user-callback 0.00 sec
Gurobi Optimizer version 9.1.2 build v9.1.2rc0 (linux64)
Thread count: 36 physical cores, 72 logical processors, using up to 32 threads
Optimize a model with 60 rows, 312 columns and 16100 nonzeros
Model fingerprint: 0x7a851ac3
Model has 262 quadratic constraints
Coefficient statistics:
  Matrix range     [4e-07, 7e+00]
  QMatrix range    [1e+00, 1e+00]
  QLMatrix range   [1e+00, 1e+00]
  Objective range  [3e-03, 1e+00]
  Bounds range     [1e+00, 1e+00]
  RHS range        [1e+00, 1e+00]
Presolve removed 15 rows and 0 columns

Continuous model is non-convex -- solving as a MIP.

Presolve removed 15 rows and 0 columns
Presolve time: 0.01s
Presolved: 1081 rows, 312 columns, 13447 nonzeros
Presolved model has 262 bilinear constraint(s)
Variable types: 312 continuous, 0 integer (0 binary)

Root relaxation: objective -1.902367e+01, 307 iterations, 0.02 seconds

    Nodes    |    Current Node    |     Objective Bounds      |     Work
 Expl Unexpl |  Obj  Depth IntInf | Incumbent    BestBd   Gap | It/Node Time

     0     0  -19.02367    0  197          -  -19.02367      -     -    0s
     0     0  -18.34795    0   35          -  -18.34795      -     -    0s
     0     0  -18.30982    0   34          -  -18.30982      -     -    0s
     0     0  -18.26103    0   62          -  -18.26103      -     -    0s
     0     0  -18.25749    0   59          -  -18.25749      -     -    0s
     0     0  -18.25031    0   54          -  -18.25031      -     -    0s
     0     0  -18.25006    0   54          -  -18.25006      -     -    0s
     0     0  -18.24123    0   66          -  -18.24123      -     -    0s
     0     0  -18.24096    0   68          -  -18.24096      -     -    0s
     0     0  -18.24027    0   62          -  -18.24027      -     -    0s
     0     0  -18.24018    0   71          -  -18.24018      -     -    0s
     0     0  -18.23983    0   69          -  -18.23983      -     -    0s
     0     0  -18.23978    0   62          -  -18.23978      -     -    0s
     0     2  -18.23978    0   62          -  -18.23978      -     -    0s
* 2516  2297              49     -17.0624419  -17.85158  4.62%  33.7    1s
* 2721  1854              47     -17.4681108  -17.85158  2.20%  33.0    1s
* 3200  1877              55     -17.4956118  -17.83225  1.92%  32.9    1s
* 3219  1877              73     -17.6377812  -17.83225  1.10%  32.8    1s
* 3320  1755              73     -17.6381910  -17.83225  1.10%  33.0    1s
* 3321  1755              72     -17.6383241  -17.83225  1.10%  33.0    1s
* 6403   414              61     -17.6386185  -17.83225  1.10%  33.4    3s
* 6564   442              62     -17.6386350  -17.83225  1.10%  33.2    3s
* 6565   442              62     -17.6386350  -17.83225  1.10%  33.2    3s
* 6566   442              60     -17.6386578  -17.83225  1.10%  33.2    3s
* 6652   442              66     -17.6386847  -17.83225  1.10%  32.9    3s
* 6829   505              66     -17.6386853  -17.83225  1.10%  32.5    3s
* 7328   704              63     -17.6387470  -17.83225  1.10%  31.6    3s
* 7333   704              63     -17.6387474  -17.83225  1.10%  31.6    3s
* 7499   815              57     -17.6462742  -17.83225  1.05%  31.2    3s
* 7917   999              93     -17.6464370  -17.83225  1.05%  30.6    4s
* 7920   999              94     -17.6465365  -17.83225  1.05%  30.6    4s
* 8223  1096              53     -17.6587812  -17.83225  0.98%  30.2    4s
* 8228  1096              55     -17.6587890  -17.83225  0.98%  30.2    4s
* 8478  1185              65     -17.6650147  -17.83225  0.95%  29.9    4s
* 8558  1185              57     -17.6776907  -17.83225  0.87%  29.8    4s
* 8559  1185              57     -17.6776915  -17.83225  0.87%  29.7    4s
* 9555  1892              57     -17.6777765  -17.83225  0.87%  28.3    4s
* 9598  1892              67     -17.6778853  -17.83225  0.87%  28.2    4s
* 9634  1892              64     -17.6780143  -17.83225  0.87%  28.1    4s
* 9636  1892              65     -17.6780155  -17.83225  0.87%  28.1    4s
* 9637  1892              65     -17.6780155  -17.83225  0.87%  28.1    4s
* 9828  1892              65     -17.6784602  -17.83225  0.87%  27.8    4s
* 9831  1892              65     -17.6784683  -17.83225  0.87%  27.8    4s
* 9832  1892              65     -17.6784684  -17.83225  0.87%  27.8    4s
* 9833  1892              63     -17.6785879  -17.83225  0.87%  27.8    4s
*10034  1957              79     -17.6796693  -17.83225  0.86%  27.5    4s
*10363  1937              80     -17.6797766  -17.83225  0.86%  27.2    4s
*10364  1937              80     -17.6797801  -17.83225  0.86%  27.2    4s
*10546  1986              65     -17.6797808  -17.83225  0.86%  26.9    4s
*10576  1986              57     -17.6798734  -17.83225  0.86%  26.9    4s
*10577  1986              57     -17.6798767  -17.83225  0.86%  26.9    4s
*10707  1986              65     -17.6878140  -17.83225  0.82%  26.7    4s
*10711  1986              65     -17.6882933  -17.83225  0.81%  26.7    4s
*10714  1986              66     -17.6882953  -17.83225  0.81%  26.7    4s
*11358  2003              66     -17.6943752  -17.83225  0.78%  26.0    4s
 11716  1977  -17.74217   61   12  -17.69438  -17.83225  0.78%  25.6    5s
*12055  1977              67     -17.6947170  -17.83225  0.78%  25.3    5s
*12144  2050              73     -17.7421306  -17.83225  0.51%  25.2    5s
*14002  2169              65     -17.7536366  -17.77163  0.10%  23.6    5s
*14896  1686              64     -17.7540079  -17.76709  0.07%  22.9    5s
*15154  1735              62     -17.7543375  -17.76558  0.06%  22.7    5s
*15158  1735              62     -17.7543575  -17.76558  0.06%  22.7    5s
*15838  1641              65     -17.7545991  -17.76078  0.03%  22.2    5s
*15926  1641              66     -17.7546002  -17.76078  0.03%  22.1    5s
*16012  1641              66     -17.7546008  -17.76078  0.03%  22.0    5s
*16110  1641              64     -17.7546011  -17.76078  0.03%  21.9    5s
*16479   937              63     -17.7546043  -17.75910  0.03%  21.5    5s
*16706   937              63     -17.7546115  -17.75715  0.01%  21.3    5s
*16850   937              64     -17.7546118  -17.75679  0.01%  21.1    5s
*17449   937              64     -17.7546124  -17.75590  0.01%  20.5    5s
*17450   937              64     -17.7546125  -17.75590  0.01%  20.5    5s

Explored 17575 nodes (358687 simplex iterations) in 5.99 seconds
Thread count was 32 (of 72 available processors)

Solution count 10: -17.7546 -17.7546 -17.7546 ... -17.754

Optimal solution found (tolerance 1.00e-04)
Best objective -1.775461245302e+01, best bound -1.775589685906e+01, gap 0.0072%

User-callback calls 36138, time in user-callback 0.01 sec



objective value: -17.754612453018016
objective bound: -17.75589685906044
x_opt: [0.9876291149206183, 1.0, 0.0, 0.35604294577371715, 0.0, 0.0, 1.0, 0.0, 0.0, 0.0, 1.0, 0.0, 1.0, 1.0, 0.12251319823695998, 1.0, 0.0, 1.0, 0.0, 0.0, 1.0, 0.698764835014228, 0.0, 0.8309403440411799, 0.0, 0.823713985475679, 0.0, 1.0, 0.0, 0.0, 1.0, 0.8921305569200912, 0.0, 0.3764387004295679, 1.0, 1.0, 0.06075498445653385, 1.0, 0.0, 0.8036147002403945, 1.0, 0.0, 1.0, 0.0, 0.0, 0.08703897421742618, 0.9261833905824733, 0.0, 1.0, 0.17692492476881663]
GUROBI solution time: 5.9937098026275635




